La4FeSe6O (mp-1296462)
1.0
9.809225	0.007576	-0.025506	
4.911297	8.496014	-0.041323	
-0.038777	-0.043139	14.232188	
La Fe Se O
16 4 24 4
Direct
0.667282	0.667609	0.103776	
0.666884	0.670006	0.603396	
0.332227	0.330687	0.353552	
0.334292	0.332889	0.853365	
0.200055	0.599037	0.080748	
0.198328	0.600811	0.580985	
0.200461	0.198497	0.078548	
0.19967	0.199758	0.578663	
0.39745	0.801533	0.329541	
0.400816	0.798083	0.829871	
0.798858	0.801307	0.33025	
0.801279	0.798732	0.831186	
0.798345	0.401411	0.330685	
0.800699	0.398102	0.828342	
0.600764	0.198418	0.080346	
0.601323	0.197728	0.579281	
0.004041	0.999513	0.999289	
0.997815	0.003276	0.748308	
0.996937	0.005459	0.500949	
0.003626	0.998556	0.249722	
0.877977	0.245074	0.132161	
0.876806	0.245092	0.628114	
0.250191	0.874221	0.131174	
0.243911	0.878431	0.631239	
0.755251	0.123321	0.383428	
0.752582	0.123908	0.881489	
0.876708	0.874388	0.132985	
0.873099	0.874501	0.634723	
0.124464	0.12756	0.380117	
0.12456	0.123085	0.880296	
0.118418	0.761837	0.384932	
0.125712	0.750605	0.883662	
0.059589	0.470663	0.222616	
0.060021	0.468884	0.722827	
0.469129	0.468479	0.224302	
0.469907	0.469838	0.722665	
0.47144	0.059194	0.222109	
0.469114	0.05913	0.722286	
0.528163	0.533243	0.473023	
0.532438	0.528085	0.972806	
0.528838	0.941534	0.472432	
0.530425	0.939454	0.972795	
0.939689	0.532259	0.47275	
0.940524	0.527909	0.972752	
0.334082	0.331873	0.02158	
0.332965	0.333637	0.521561	
0.665832	0.66675	0.271783	
0.667014	0.665639	0.771551	
