La4FeSe6O (mp-1312000)
1.0
9.833178	-0.012085	0.018568	
-4.92642	8.488495	-0.03774	
0.01407	-0.023621	7.117372	
La Fe Se O
8 2 12 2
Direct
0.80115	0.601919	0.161002	
0.333275	0.666728	0.207392	
0.399433	0.199412	0.159168	
0.1993	0.798553	0.66126	
0.599841	0.798755	0.660988	
0.198805	0.397688	0.658498	
0.66818	0.334624	0.707133	
0.799325	0.200439	0.158359	
0.001334	0.998779	0.999762	
0.001782	0.004634	0.499219	
0.123568	0.248285	0.260186	
0.124931	0.877114	0.268912	
0.530288	0.469813	0.44588	
0.940692	0.470851	0.444737	
0.875209	0.123275	0.761001	
0.752537	0.87778	0.264221	
0.529706	0.060007	0.44461	
0.246905	0.122769	0.763999	
0.059714	0.52943	0.945528	
0.469695	0.939918	0.945499	
0.469267	0.529423	0.945321	
0.875187	0.750349	0.765785	
0.666741	0.333924	0.043134	
0.333134	0.66553	0.543361	
